Quiz_problem.sol
# Solution for model basic_model
# Objective value = 6450
X 700
Y 700
Z 50
